156970.9,55.57,68.91
184418.32,47.3,58.65
178217.41,48.94,60.69
165355.86,52.75,65.42
180030.79,48.45,60.08
149866.11,58.2,72.18
200323.48,43.54,54.0
171197.85,50.95,63.18
173448.13,50.29,62.36
171792.17,50.77,62.96
183271.22,47.59,59.02
188568.73,46.26,57.36
167128.43,52.19,64.72
184190.91,47.36,58.73
163034.61,53.5,66.35
187458.5,46.53,57.7
146787.73,59.42,73.69
195085.13,44.71,55.45
163532.9,53.34,66.14
178713.77,48.81,60.53
